60
1 0 5
2 0 4
2 1 8
3 0 11
3 1 9
3 2 13
4 0 8
4 1 8
4 2 6
4 3 4
5 0 6
5 1 5
5 2 3
5 3 7
5 4 12
6 0 3
6 1 8
6 2 10
6 3 6
6 4 3
6 5 8
7 0 1
7 1 3
7 2 3
7 3 2
7 4 11
7 5 7
7 6 1
8 0 4
8 1 2
8 2 8
8 3 11
8 4 10
8 5 2
8 6 6
8 7 10
9 0 1
9 1 10
9 2 11
9 3 2
9 4 13
9 5 1
9 6 11
9 7 1
9 8 3
10 0 11
10 1 4
10 2 6
10 3 1
10 4 3
10 5 12
10 6 4
10 7 8
10 8 11
10 9 7
11 0 11
11 1 3
11 2 3
11 3 11
11 4 13
11 5 7
11 6 13
11 7 8
11 8 11
11 9 12
11 10 10
12 0 2
12 1 1
12 2 6
12 3 7
12 4 6
12 5 3
12 6 10
12 7 12
12 8 10
12 9 5
12 10 8
12 11 10
13 0 4
13 1 5
13 2 12
13 3 4
13 4 9
13 5 1
13 6 2
13 7 4
13 8 5
13 9 4
13 10 4
13 11 3
13 12 1
14 0 10
14 1 2
14 2 8
14 3 1
14 4 13
14 5 4
14 6 13
14 7 4
14 8 9
14 9 1
14 10 2
14 11 8
14 12 9
14 13 7
15 0 12
15 1 3
15 2 2
15 3 12
15 4 11
15 5 3
15 6 12
15 7 8
15 8 6
15 9 7
15 10 13
15 11 6
15 12 10
15 13 10
15 14 12
16 0 5
16 1 7
16 2 2
16 3 4
16 4 2
16 5 8
16 6 3
16 7 13
16 8 13
16 9 2
16 10 13
16 11 12
16 12 1
16 13 1
16 14 5
16 15 7
17 0 5
17 1 13
17 2 9
17 3 4
17 4 1
17 5 3
17 6 12
17 7 8
17 8 1
17 9 13
17 10 1
17 11 8
17 12 6
17 13 5
17 14 2
17 15 4
17 16 4
18 0 8
18 1 11
18 2 2
18 3 3
18 4 7
18 5 2
18 6 13
18 7 6
18 8 10
18 9 12
18 10 3
18 11 6
18 12 1
18 13 1
18 14 8
18 15 3
18 16 13
18 17 3
19 0 13
19 1 7
19 2 9
19 3 9
19 4 4
19 5 2
19 6 9
19 7 10
19 8 7
19 9 5
19 10 3
19 11 13
19 12 11
19 13 8
19 14 1
19 15 3
19 16 7
19 17 13
19 18 3
20 0 7
20 1 9
20 2 6
20 3 4
20 4 3
20 5 1
20 6 12
20 7 3
20 8 9
20 9 12
20 10 1
20 11 8
20 12 10
20 13 5
20 14 2
20 15 11
20 16 2
20 17 7
20 18 13
20 19 1
21 0 4
21 1 8
21 2 6
21 3 4
21 4 5
21 5 11
21 6 7
21 7 12
21 8 13
21 9 12
21 10 4
21 11 5
21 12 4
21 13 1
21 14 2
21 15 4
21 16 2
21 17 9
21 18 13
21 19 13
21 20 6
22 0 2
22 1 9
22 2 5
22 3 10
22 4 7
22 5 13
22 6 5
22 7 12
22 8 10
22 9 5
22 10 13
22 11 4
22 12 4
22 13 10
22 14 2
22 15 12
22 16 4
22 17 11
22 18 2
22 19 3
22 20 7
22 21 13
23 0 11
23 1 3
23 2 6
23 3 8
23 4 3
23 5 4
23 6 7
23 7 7
23 8 10
23 9 1
23 10 9
23 11 10
23 12 3
23 13 5
23 14 3
23 15 5
23 16 8
23 17 1
23 18 12
23 19 5
23 20 8
23 21 6
23 22 2
24 0 13
24 1 10
24 2 8
24 3 2
24 4 10
24 5 1
24 6 3
24 7 5
24 8 8
24 9 12
24 10 12
24 11 4
24 12 3
24 13 3
24 14 6
24 15 8
24 16 4
24 17 2
24 18 1
24 19 9
24 20 5
24 21 10
24 22 3
24 23 4
25 0 10
25 1 1
25 2 6
25 3 13
25 4 6
25 5 6
25 6 1
25 7 3
25 8 11
25 9 13
25 10 2
25 11 9
25 12 13
25 13 11
25 14 5
25 15 3
25 16 9
25 17 1
25 18 10
25 19 13
25 20 4
25 21 5
25 22 4
25 23 8
25 24 12
26 0 8
26 1 7
26 2 10
26 3 8
26 4 13
26 5 3
26 6 13
26 7 6
26 8 5
26 9 13
26 10 12
26 11 12
26 12 2
26 13 6
26 14 3
26 15 5
26 16 11
26 17 13
26 18 9
26 19 3
26 20 7
26 21 5
26 22 6
26 23 6
26 24 13
26 25 11
27 0 13
27 1 12
27 2 2
27 3 7
27 4 10
27 5 12
27 6 6
27 7 12
27 8 11
27 9 6
27 10 4
27 11 9
27 12 1
27 13 10
27 14 4
27 15 5
27 16 8
27 17 7
27 18 6
27 19 3
27 20 8
27 21 5
27 22 8
27 23 5
27 24 5
27 25 10
27 26 13
28 0 8
28 1 12
28 2 7
28 3 1
28 4 6
28 5 9
28 6 13
28 7 8
28 8 9
28 9 13
28 10 6
28 11 12
28 12 3
28 13 5
28 14 11
28 15 4
28 16 13
28 17 1
28 18 10
28 19 8
28 20 13
28 21 10
28 22 12
28 23 13
28 24 12
28 25 13
28 26 9
28 27 12
29 0 2
29 1 5
29 2 8
29 3 12
29 4 9
29 5 11
29 6 6
29 7 3
29 8 10
29 9 1
29 10 3
29 11 5
29 12 13
29 13 5
29 14 4
29 15 9
29 16 10
29 17 1
29 18 8
29 19 11
29 20 9
29 21 6
29 22 6
29 23 13
29 24 13
29 25 12
29 26 6
29 27 4
29 28 2
30 0 8
30 1 12
30 2 6
30 3 6
30 4 6
30 5 13
30 6 4
30 7 9
30 8 11
30 9 8
30 10 9
30 11 12
30 12 1
30 13 10
30 14 3
30 15 6
30 16 5
30 17 11
30 18 1
30 19 11
30 20 10
30 21 1
30 22 8
30 23 6
30 24 5
30 25 1
30 26 12
30 27 1
30 28 1
30 29 7
31 0 12
31 1 2
31 2 8
31 3 6
31 4 13
31 5 2
31 6 5
31 7 11
31 8 13
31 9 10
31 10 9
31 11 5
31 12 10
31 13 9
31 14 13
31 15 5
31 16 4
31 17 5
31 18 10
31 19 10
31 20 13
31 21 2
31 22 3
31 23 5
31 24 6
31 25 8
31 26 13
31 27 10
31 28 6
31 29 3
31 30 12
32 0 2
32 1 10
32 2 5
32 3 8
32 4 3
32 5 2
32 6 2
32 7 1
32 8 4
32 9 1
32 10 4
32 11 7
32 12 10
32 13 2
32 14 10
32 15 9
32 16 2
32 17 12
32 18 12
32 19 4
32 20 3
32 21 9
32 22 2
32 23 6
32 24 12
32 25 2
32 26 7
32 27 5
32 28 11
32 29 6
32 30 1
32 31 7
33 0 11
33 1 7
33 2 5
33 3 3
33 4 13
33 5 6
33 6 9
33 7 6
33 8 8
33 9 1
33 10 8
33 11 3
33 12 6
33 13 7
33 14 12
33 15 6
33 16 9
33 17 3
33 18 4
33 19 10
33 20 7
33 21 8
33 22 6
33 23 2
33 24 12
33 25 13
33 26 3
33 27 13
33 28 2
33 29 2
33 30 3
33 31 5
33 32 12
34 0 6
34 1 10
34 2 11
34 3 5
34 4 3
34 5 2
34 6 1
34 7 4
34 8 7
34 9 1
34 10 10
34 11 8
34 12 6
34 13 13
34 14 13
34 15 5
34 16 8
34 17 2
34 18 12
34 19 2
34 20 7
34 21 4
34 22 11
34 23 5
34 24 4
34 25 4
34 26 11
34 27 9
34 28 4
34 29 10
34 30 3
34 31 10
34 32 13
34 33 4
35 0 1
35 1 1
35 2 3
35 3 1
35 4 4
35 5 12
35 6 6
35 7 7
35 8 12
35 9 13
35 10 8
35 11 9
35 12 13
35 13 4
35 14 3
35 15 2
35 16 5
35 17 8
35 18 3
35 19 10
35 20 10
35 21 1
35 22 10
35 23 11
35 24 12
35 25 9
35 26 13
35 27 9
35 28 12
35 29 5
35 30 3
35 31 5
35 32 12
35 33 6
35 34 2
36 0 7
36 1 4
36 2 9
36 3 8
36 4 2
36 5 5
36 6 7
36 7 2
36 8 5
36 9 6
36 10 2
36 11 12
36 12 5
36 13 5
36 14 6
36 15 8
36 16 8
36 17 10
36 18 7
36 19 8
36 20 9
36 21 12
36 22 3
36 23 7
36 24 1
36 25 6
36 26 10
36 27 3
36 28 7
36 29 6
36 30 4
36 31 9
36 32 12
36 33 7
36 34 13
36 35 12
37 0 3
37 1 3
37 2 8
37 3 2
37 4 6
37 5 5
37 6 10
37 7 4
37 8 7
37 9 13
37 10 12
37 11 5
37 12 1
37 13 2
37 14 6
37 15 6
37 16 8
37 17 1
37 18 9
37 19 4
37 20 9
37 21 9
37 22 5
37 23 3
37 24 7
37 25 13
37 26 7
37 27 4
37 28 13
37 29 2
37 30 11
37 31 13
37 32 12
37 33 5
37 34 9
37 35 3
37 36 6
38 0 8
38 1 10
38 2 7
38 3 7
38 4 7
38 5 5
38 6 2
38 7 10
38 8 9
38 9 7
38 10 5
38 11 1
38 12 3
38 13 1
38 14 11
38 15 6
38 16 8
38 17 6
38 18 8
38 19 2
38 20 9
38 21 11
38 22 7
38 23 8
38 24 8
38 25 11
38 26 5
38 27 8
38 28 2
38 29 3
38 30 7
38 31 12
38 32 12
38 33 7
38 34 5
38 35 11
38 36 2
38 37 5
39 0 2
39 1 13
39 2 6
39 3 4
39 4 7
39 5 2
39 6 8
39 7 4
39 8 7
39 9 8
39 10 10
39 11 4
39 12 7
39 13 7
39 14 12
39 15 12
39 16 2
39 17 8
39 18 7
39 19 3
39 20 2
39 21 4
39 22 2
39 23 12
39 24 6
39 25 4
39 26 11
39 27 13
39 28 10
39 29 11
39 30 1
39 31 8
39 32 6
39 33 11
39 34 11
39 35 13
39 36 2
39 37 8
39 38 11
40 0 10
40 1 10
40 2 7
40 3 6
40 4 1
40 5 3
40 6 4
40 7 4
40 8 5
40 9 1
40 10 12
40 11 11
40 12 10
40 13 1
40 14 1
40 15 5
40 16 13
40 17 13
40 18 11
40 19 7
40 20 13
40 21 3
40 22 6
40 23 12
40 24 9
40 25 7
40 26 1
40 27 2
40 28 7
40 29 9
40 30 9
40 31 10
40 32 11
40 33 8
40 34 6
40 35 10
40 36 9
40 37 7
40 38 3
40 39 12
41 0 3
41 1 1
41 2 4
41 3 6
41 4 5
41 5 5
41 6 4
41 7 13
41 8 11
41 9 1
41 10 8
41 11 9
41 12 6
41 13 4
41 14 4
41 15 6
41 16 2
41 17 4
41 18 1
41 19 11
41 20 6
41 21 5
41 22 10
41 23 4
41 24 13
41 25 11
41 26 9
41 27 1
41 28 9
41 29 12
41 30 8
41 31 9
41 32 5
41 33 12
41 34 3
41 35 4
41 36 6
41 37 8
41 38 4
41 39 4
41 40 4
42 0 13
42 1 3
42 2 6
42 3 12
42 4 9
42 5 13
42 6 7
42 7 5
42 8 1
42 9 8
42 10 6
42 11 11
42 12 5
42 13 12
42 14 7
42 15 6
42 16 10
42 17 6
42 18 3
42 19 5
42 20 8
42 21 8
42 22 11
42 23 13
42 24 3
42 25 1
42 26 5
42 27 7
42 28 9
42 29 8
42 30 7
42 31 12
42 32 12
42 33 11
42 34 6
42 35 13
42 36 1
42 37 13
42 38 13
42 39 5
42 40 6
42 41 12
43 0 2
43 1 12
43 2 7
43 3 1
43 4 7
43 5 5
43 6 4
43 7 5
43 8 7
43 9 4
43 10 1
43 11 7
43 12 4
43 13 11
43 14 4
43 15 7
43 16 2
43 17 2
43 18 9
43 19 5
43 20 12
43 21 10
43 22 13
43 23 2
43 24 7
43 25 10
43 26 3
43 27 8
43 28 7
43 29 12
43 30 2
43 31 8
43 32 13
43 33 7
43 34 5
43 35 6
43 36 13
43 37 6
43 38 8
43 39 3
43 40 6
43 41 8
43 42 6
44 0 9
44 1 1
44 2 11
44 3 1
44 4 13
44 5 2
44 6 12
44 7 11
44 8 11
44 9 6
44 10 4
44 11 5
44 12 2
44 13 9
44 14 3
44 15 7
44 16 10
44 17 9
44 18 2
44 19 12
44 20 4
44 21 8
44 22 5
44 23 1
44 24 1
44 25 10
44 26 6
44 27 4
44 28 12
44 29 6
44 30 8
44 31 10
44 32 3
44 33 10
44 34 6
44 35 12
44 36 1
44 37 3
44 38 6
44 39 5
44 40 9
44 41 13
44 42 4
44 43 9
45 0 13
45 1 1
45 2 6
45 3 5
45 4 11
45 5 9
45 6 10
45 7 9
45 8 12
45 9 5
45 10 7
45 11 3
45 12 2
45 13 1
45 14 13
45 15 13
45 16 1
45 17 3
45 18 12
45 19 9
45 20 12
45 21 9
45 22 10
45 23 9
45 24 1
45 25 13
45 26 12
45 27 5
45 28 6
45 29 11
45 30 11
45 31 6
45 32 3
45 33 11
45 34 4
45 35 8
45 36 10
45 37 5
45 38 7
45 39 13
45 40 4
45 41 12
45 42 13
45 43 9
45 44 6
46 0 11
46 1 11
46 2 9
46 3 6
46 4 5
46 5 2
46 6 9
46 7 6
46 8 9
46 9 6
46 10 9
46 11 13
46 12 5
46 13 6
46 14 12
46 15 13
46 16 13
46 17 13
46 18 9
46 19 2
46 20 12
46 21 8
46 22 8
46 23 12
46 24 3
46 25 13
46 26 6
46 27 3
46 28 6
46 29 9
46 30 9
46 31 10
46 32 8
46 33 7
46 34 2
46 35 4
46 36 4
46 37 2
46 38 5
46 39 12
46 40 2
46 41 8
46 42 5
46 43 6
46 44 7
46 45 8
47 0 9
47 1 10
47 2 10
47 3 3
47 4 11
47 5 6
47 6 2
47 7 11
47 8 4
47 9 10
47 10 12
47 11 3
47 12 1
47 13 5
47 14 3
47 15 4
47 16 10
47 17 1
47 18 13
47 19 4
47 20 3
47 21 13
47 22 4
47 23 4
47 24 3
47 25 12
47 26 9
47 27 10
47 28 4
47 29 10
47 30 1
47 31 8
47 32 1
47 33 5
47 34 12
47 35 5
47 36 10
47 37 4
47 38 3
47 39 3
47 40 1
47 41 2
47 42 8
47 43 10
47 44 11
47 45 13
47 46 13
48 0 5
48 1 5
48 2 5
48 3 4
48 4 1
48 5 8
48 6 13
48 7 2
48 8 5
48 9 6
48 10 6
48 11 6
48 12 8
48 13 2
48 14 5
48 15 8
48 16 1
48 17 11
48 18 12
48 19 6
48 20 11
48 21 8
48 22 12
48 23 2
48 24 3
48 25 6
48 26 11
48 27 9
48 28 13
48 29 12
48 30 2
48 31 5
48 32 12
48 33 13
48 34 10
48 35 11
48 36 4
48 37 8
48 38 9
48 39 5
48 40 4
48 41 3
48 42 12
48 43 7
48 44 12
48 45 9
48 46 5
48 47 12
49 0 13
49 1 7
49 2 4
49 3 7
49 4 1
49 5 10
49 6 1
49 7 10
49 8 2
49 9 1
49 10 11
49 11 8
49 12 2
49 13 1
49 14 4
49 15 1
49 16 9
49 17 1
49 18 11
49 19 13
49 20 2
49 21 4
49 22 7
49 23 12
49 24 2
49 25 2
49 26 9
49 27 4
49 28 12
49 29 3
49 30 12
49 31 8
49 32 5
49 33 10
49 34 12
49 35 6
49 36 11
49 37 8
49 38 5
49 39 2
49 40 3
49 41 12
49 42 10
49 43 12
49 44 2
49 45 4
49 46 8
49 47 9
49 48 8
50 0 12
50 1 6
50 2 4
50 3 8
50 4 4
50 5 6
50 6 1
50 7 2
50 8 6
50 9 6
50 10 13
50 11 3
50 12 3
50 13 6
50 14 3
50 15 11
50 16 7
50 17 8
50 18 5
50 19 13
50 20 8
50 21 7
50 22 12
50 23 5
50 24 9
50 25 3
50 26 3
50 27 12
50 28 12
50 29 3
50 30 10
50 31 4
50 32 6
50 33 9
50 34 3
50 35 9
50 36 6
50 37 7
50 38 7
50 39 4
50 40 11
50 41 10
50 42 10
50 43 11
50 44 8
50 45 4
50 46 2
50 47 8
50 48 13
50 49 7
51 0 5
51 1 3
51 2 2
51 3 2
51 4 8
51 5 4
51 6 2
51 7 7
51 8 11
51 9 6
51 10 5
51 11 13
51 12 4
51 13 6
51 14 3
51 15 5
51 16 13
51 17 11
51 18 5
51 19 1
51 20 1
51 21 8
51 22 3
51 23 4
51 24 10
51 25 5
51 26 12
51 27 1
51 28 4
51 29 2
51 30 6
51 31 4
51 32 6
51 33 5
51 34 4
51 35 10
51 36 4
51 37 13
51 38 11
51 39 8
51 40 11
51 41 11
51 42 13
51 43 7
51 44 3
51 45 12
51 46 4
51 47 10
51 48 8
51 49 3
51 50 9
52 0 3
52 1 8
52 2 11
52 3 12
52 4 4
52 5 9
52 6 1
52 7 4
52 8 11
52 9 4
52 10 8
52 11 1
52 12 7
52 13 1
52 14 9
52 15 1
52 16 5
52 17 11
52 18 4
52 19 12
52 20 10
52 21 3
52 22 12
52 23 5
52 24 12
52 25 11
52 26 8
52 27 6
52 28 8
52 29 10
52 30 8
52 31 2
52 32 4
52 33 2
52 34 5
52 35 5
52 36 13
52 37 11
52 38 10
52 39 2
52 40 11
52 41 2
52 42 1
52 43 13
52 44 13
52 45 7
52 46 7
52 47 12
52 48 13
52 49 2
52 50 2
52 51 5
53 0 1
53 1 3
53 2 7
53 3 8
53 4 11
53 5 12
53 6 7
53 7 5
53 8 10
53 9 8
53 10 12
53 11 10
53 12 2
53 13 7
53 14 3
53 15 1
53 16 13
53 17 3
53 18 1
53 19 4
53 20 11
53 21 5
53 22 3
53 23 1
53 24 5
53 25 7
53 26 7
53 27 13
53 28 10
53 29 2
53 30 12
53 31 7
53 32 7
53 33 10
53 34 1
53 35 10
53 36 3
53 37 7
53 38 6
53 39 4
53 40 7
53 41 12
53 42 8
53 43 6
53 44 10
53 45 6
53 46 12
53 47 7
53 48 9
53 49 2
53 50 8
53 51 10
53 52 2
54 0 9
54 1 6
54 2 13
54 3 6
54 4 3
54 5 3
54 6 9
54 7 9
54 8 4
54 9 13
54 10 2
54 11 11
54 12 2
54 13 7
54 14 8
54 15 6
54 16 2
54 17 1
54 18 7
54 19 12
54 20 9
54 21 2
54 22 13
54 23 5
54 24 5
54 25 3
54 26 1
54 27 10
54 28 4
54 29 9
54 30 7
54 31 7
54 32 2
54 33 5
54 34 13
54 35 7
54 36 13
54 37 1
54 38 12
54 39 9
54 40 12
54 41 2
54 42 6
54 43 5
54 44 13
54 45 8
54 46 4
54 47 12
54 48 4
54 49 8
54 50 6
54 51 5
54 52 4
54 53 6
55 0 13
55 1 2
55 2 6
55 3 6
55 4 11
55 5 5
55 6 8
55 7 7
55 8 12
55 9 6
55 10 11
55 11 5
55 12 10
55 13 13
55 14 7
55 15 4
55 16 11
55 17 4
55 18 11
55 19 11
55 20 10
55 21 1
55 22 13
55 23 3
55 24 10
55 25 6
55 26 8
55 27 2
55 28 5
55 29 13
55 30 2
55 31 1
55 32 12
55 33 4
55 34 2
55 35 12
55 36 10
55 37 10
55 38 3
55 39 10
55 40 12
55 41 5
55 42 11
55 43 11
55 44 7
55 45 4
55 46 9
55 47 2
55 48 8
55 49 1
55 50 7
55 51 9
55 52 9
55 53 5
55 54 3
56 0 11
56 1 12
56 2 7
56 3 8
56 4 12
56 5 8
56 6 10
56 7 13
56 8 11
56 9 7
56 10 11
56 11 8
56 12 2
56 13 3
56 14 9
56 15 3
56 16 10
56 17 6
56 18 3
56 19 3
56 20 7
56 21 11
56 22 13
56 23 4
56 24 2
56 25 9
56 26 9
56 27 8
56 28 12
56 29 10
56 30 12
56 31 5
56 32 11
56 33 5
56 34 12
56 35 11
56 36 13
56 37 1
56 38 5
56 39 4
56 40 2
56 41 5
56 42 9
56 43 4
56 44 8
56 45 4
56 46 6
56 47 12
56 48 4
56 49 3
56 50 10
56 51 11
56 52 3
56 53 4
56 54 8
56 55 3
57 0 8
57 1 4
57 2 10
57 3 3
57 4 10
57 5 9
57 6 11
57 7 6
57 8 3
57 9 9
57 10 10
57 11 8
57 12 4
57 13 6
57 14 3
57 15 8
57 16 5
57 17 5
57 18 3
57 19 12
57 20 11
57 21 3
57 22 12
57 23 2
57 24 6
57 25 7
57 26 2
57 27 4
57 28 12
57 29 11
57 30 5
57 31 1
57 32 1
57 33 9
57 34 10
57 35 9
57 36 10
57 37 9
57 38 5
57 39 1
57 40 8
57 41 9
57 42 5
57 43 10
57 44 6
57 45 2
57 46 2
57 47 4
57 48 6
57 49 9
57 50 10
57 51 4
57 52 1
57 53 11
57 54 6
57 55 11
57 56 6
58 0 4
58 1 2
58 2 13
58 3 4
58 4 5
58 5 6
58 6 4
58 7 10
58 8 10
58 9 13
58 10 5
58 11 3
58 12 2
58 13 11
58 14 9
58 15 11
58 16 13
58 17 6
58 18 12
58 19 12
58 20 11
58 21 6
58 22 4
58 23 11
58 24 11
58 25 9
58 26 6
58 27 5
58 28 13
58 29 4
58 30 6
58 31 1
58 32 12
58 33 8
58 34 9
58 35 1
58 36 11
58 37 6
58 38 13
58 39 10
58 40 4
58 41 7
58 42 9
58 43 10
58 44 11
58 45 7
58 46 4
58 47 6
58 48 5
58 49 6
58 50 3
58 51 4
58 52 10
58 53 11
58 54 3
58 55 6
58 56 5
58 57 3
59 0 3
59 1 4
59 2 10
59 3 7
59 4 2
59 5 8
59 6 13
59 7 13
59 8 8
59 9 7
59 10 13
59 11 9
59 12 11
59 13 11
59 14 6
59 15 11
59 16 3
59 17 6
59 18 3
59 19 11
59 20 8
59 21 13
59 22 4
59 23 13
59 24 13
59 25 1
59 26 5
59 27 3
59 28 5
59 29 11
59 30 13
59 31 6
59 32 6
59 33 2
59 34 4
59 35 9
59 36 5
59 37 11
59 38 8
59 39 6
59 40 6
59 41 11
59 42 3
59 43 10
59 44 13
59 45 4
59 46 2
59 47 3
59 48 13
59 49 6
59 50 5
59 51 7
59 52 7
59 53 4
59 54 13
59 55 6
59 56 3
59 57 10
59 58 7
